p cnf 81 260
-2 -3 -4 0
2 3 -4 0
-2 3 4 0
2 -3 4 0
5 -1 0
5 -4 0
1 4 -5 0
-6 -7 -8 0
6 7 -8 0
-6 7 8 0
6 -7 8 0
-4 -3 -9 0
4 3 -9 0
-4 3 9 0
4 -3 9 0
-9 10 -11 0
9 -10 -11 0
-9 -10 11 0
9 10 11 0
-8 -11 -12 0
8 11 -12 0
-8 11 12 0
8 -11 12 0
5 -12 -13 0
-5 12 -13 0
5 12 13 0
-5 -12 13 0
15 -9 0
15 -14 0
9 14 -15 0
16 4 0
16 15 0
-4 -15 -16 0
-6 17 0
6 17 0
19 -10 0
19 -18 0
10 18 -19 0
-19 2 -20 0
19 -2 -20 0
-19 -2 20 0
19 2 20 0
21 17 0
21 20 0
-17 -20 -21 0
-3 2 -22 0
3 -2 -22 0
-3 -2 22 0
3 2 22 0
-21 22 -23 0
21 -22 -23 0
-21 -22 23 0
21 22 23 0
-16 23 -24 0
16 -23 -24 0
-16 -23 24 0
16 23 24 0
25 -13 0
25 -24 0
13 24 -25 0
27 14 0
27 26 0
-14 -26 -27 0
28 -26 -29 0
-28 26 -29 0
28 26 29 0
-28 -26 29 0
4 -29 -30 0
-4 29 -30 0
4 29 30 0
-4 -29 30 0
-30 20 -31 0
30 -20 -31 0
-30 -20 31 0
30 20 31 0
-27 31 -32 0
27 -31 -32 0
-27 -31 32 0
27 31 32 0
-33 -2 0
-33 18 0
2 -18 33 0
-34 -28 0
-34 14 0
28 -14 34 0
-35 33 0
-35 34 0
-33 -34 35 0
36 -30 0
36 35 0
30 -35 -36 0
-37 33 0
-37 10 0
-33 -10 37 0
38 36 0
38 -37 0
-36 37 -38 0
-32 38 -39 0
32 -38 -39 0
-32 -38 39 0
32 38 39 0
-40 25 0
-40 -39 0
-25 39 40 0
41 -14 0
41 4 0
14 -4 -41 0
42 2 0
42 -41 0
-2 41 -42 0
-28 -43 -44 0
28 43 -44 0
-28 43 44 0
28 -43 44 0
-9 7 -45 0
9 -7 -45 0
-9 -7 45 0
9 7 45 0
45 -2 -46 0
-45 2 -46 0
45 2 46 0
-45 -2 46 0
46 47 -48 0
-46 -47 -48 0
46 -47 48 0
-46 47 48 0
49 48 0
49 -46 0
-48 46 -49 0
-50 -44 0
-50 -49 0
44 49 50 0
15 45 -51 0
-15 -45 -51 0
15 -45 51 0
-15 45 51 0
50 51 -52 0
-50 -51 -52 0
50 -51 52 0
-50 51 52 0
53 -42 0
53 -52 0
42 52 -53 0
54 -40 0
54 -53 0
40 53 -54 0
29 -1 -55 0
-29 1 -55 0
29 1 55 0
-29 -1 55 0
-57 -56 0
-57 47 0
56 -47 57 0
58 57 0
58 -2 0
-57 2 -58 0
26 1 -59 0
-26 -1 -59 0
26 -1 59 0
-26 1 59 0
-60 6 0
-60 -11 0
-6 11 60 0
61 -59 0
61 -60 0
59 60 -61 0
-58 -61 -62 0
58 61 -62 0
-58 61 62 0
58 -61 62 0
-33 9 -63 0
33 -9 -63 0
-33 -9 63 0
33 9 63 0
27 -63 -64 0
-27 63 -64 0
27 63 64 0
-27 -63 64 0
-65 62 0
-65 64 0
-62 -64 65 0
66 29 0
66 -33 0
-29 33 -66 0
67 65 0
67 66 0
-65 -66 -67 0
-55 67 -68 0
55 -67 -68 0
-55 -67 68 0
55 67 68 0
69 -54 0
69 -68 0
54 68 -69 0
-34 14 -70 0
34 -14 -70 0
-34 -14 70 0
34 14 70 0
71 -4 0
71 -30 0
4 30 -71 0
70 -71 -72 0
-70 71 -72 0
70 71 72 0
-70 -71 72 0
75 -30 0
75 -74 0
30 74 -75 0
-26 76 -77 0
26 -76 -77 0
-26 -76 77 0
26 76 77 0
78 -75 0
78 77 0
75 -77 -78 0
-73 -78 -79 0
73 78 -79 0
-73 78 79 0
73 -78 79 0
80 72 0
80 79 0
-72 -79 -80 0
81 -69 0
81 80 0
69 -80 -81 0
-57 -65 -11 79 0
-18 -22 -21 -12 71 -7 0
-25 -76 73 43 -81 0
45 -77 -14 -43 0
-37 65 -75 0
2 -41 -70 -61 -25 0
-10 73 -8 -75 0
40 57 19 30 0
-67 -37 19 0
45 43 58 78 72 -34 0
24 -52 0
-15 52 -63 -23 77 74 0
-53 -51 -43 33 0
-64 -35 77 42 0
34 -27 0
-41 -35 -43 -23 -39 -37 0
79 78 -54 21 -63 0
78 -58 0
20 -68 -46 0
71 -60 -46 -34 0
81 48 26 -76 0
28 64 0
-42 34 30 -75 -18 22 0
-14 -20 25 4 -41 0
-37 2 -1 79 0
-65 -10 0
-12 -8 71 0
-69 10 0
7 -55 0
-50 -11 0
-80 -61 -9 75 0
-31 -12 5 -80 0
27 -46 0
72 80 0
81 0
